% Auto-generated by scripts/generate_dzn.py
% problem_type   = regex
% instance       = regex_16
% source_json    = instances_json/1_medium_blowup/regex_16.json
% blowup         = 4.3478260869565215
% representation = NFA

mode = 1;

var_count = 20;
n_constraints = 2;
Q = 12;
S = 3;
q0 = [1, 1];
F = [{12}, {11}];
weights = [1, 4, 6, 9, 9, 4, 5, 10, 8, 2, 7, 6, 4, 2, 7, 2, 5, 5, 3, 5];
d_dfa = array3d(1..2, 1..12, 1..3, [
  % k = 1
    0, 0, 0,
    0, 0, 0,
    0, 0, 0,
    0, 0, 0,
    0, 0, 0,
    0, 0, 0,
    0, 0, 0,
    0, 0, 0,
    0, 0, 0,
    0, 0, 0,
    0, 0, 0,
    0, 0, 0,

  % k = 2
    0, 0, 0,
    0, 0, 0,
    0, 0, 0,
    0, 0, 0,
    0, 0, 0,
    0, 0, 0,
    0, 0, 0,
    0, 0, 0,
    0, 0, 0,
    0, 0, 0,
    0, 0, 0,
    0, 0, 0
]);
d_nfa = array3d(1..2, 1..12, 1..3, [
  % k = 1
    {1}, {1}, {1, 2},
    {}, {}, {3},
    {4}, {}, {},
    {5}, {5}, {5},
    {6}, {6}, {6},
    {7}, {7}, {7},
    {8}, {8}, {8},
    {9}, {9}, {9},
    {10}, {10}, {10},
    {11}, {11}, {11},
    {12}, {12}, {12},
    {}, {}, {},

  % k = 2
    {1}, {2}, {1},
    {2}, {3}, {2},
    {3}, {4}, {3},
    {4}, {5}, {4},
    {5}, {6}, {5},
    {6}, {7}, {6},
    {7}, {8}, {7},
    {8}, {9}, {8},
    {9}, {10}, {9},
    {10}, {11}, {10},
    {11}, {}, {11},
    {}, {}, {}
]);
